% demand
num_movements = 20;
loading_factor = [2000, 900, 1300, 850, 1300, 1350, 1000, 850, 1550, 1050, 1200, 1100, 950, 800, 1850, 1850, 1900, 1750, 1600, 2000];
pickup_time = [0, 0, 0, 0, 0, 1, 1, 1, 1, 1, 2, 3, 3, 3, 3, 3, 4, 5, 7, 7];
delivery_time = [1, 1, 1, 1, 1, 3, 3, 3, 3, 3, 3, 8, 7, 4, 4, 4, 8, 6, 8, 8];

% transporter definition
total_capacity = 7000;
num_decks = 3;
capacity = [3000, 1000, 3000];

% ways out of decks
num_ways_out = 1;
paths_out = array3d(decks, ways_out, decks, [
% ways out of deck d1
2, 3, 0, 

% ways out of deck d2
3, 0, 0, 

% ways out of deck d3
0, 0, 0,	

]);

